objective value:                                -1611
t_x14                                               1 	(obj:-100)
t_x17                                               1 	(obj:-100)
t_x21                                               1 	(obj:-100)
t_x33                                               1 	(obj:-100)
t_x46                                               1 	(obj:-100)
t_x54                                               1 	(obj:-100)
t_x98                                               1 	(obj:-100)
t_x102                                              1 	(obj:-100)
t_x108                                              1 	(obj:-100)
t_x109                                              1 	(obj:-100)
t_x113                                              1 	(obj:-100)
t_x124                                              1 	(obj:-100)
t_x127                                              1 	(obj:-100)
t_x130                                              1 	(obj:-100)
t_x131                                              1 	(obj:-100)
t_x133                                              1 	(obj:-100)
t_x138                                              1 	(obj:-100)
t_x144                                              1 	(obj:-100)
t_y131_143                                          1 	(obj:1)
t_y79_131                                           1 	(obj:1)
t_y14_150                                           1 	(obj:1)
t_y20_109                                           1 	(obj:1)
t_y0_17                                             1 	(obj:1)
t_y12_17                                            1 	(obj:1)
t_y121_138                                          1 	(obj:1)
t_y44_108                                           1 	(obj:1)
t_y124_143                                          1 	(obj:1)
t_y54_61                                            1 	(obj:1)
t_y14_131                                           1 	(obj:1)
t_y46_104                                           1 	(obj:1)
t_y97_130                                           1 	(obj:1)
t_y3_17                                             1 	(obj:1)
t_y61_131                                           1 	(obj:1)
t_y23_109                                           1 	(obj:1)
t_y44_98                                            1 	(obj:1)
t_y33_67                                            1 	(obj:1)
t_y18_124                                           1 	(obj:1)
t_y0_109                                            1 	(obj:1)
t_y63_130                                           1 	(obj:1)
t_y109_130                                          1 	(obj:1)
t_y86_102                                           1 	(obj:1)
t_y87_108                                           1 	(obj:1)
t_y21_147                                           1 	(obj:1)
t_y17_129                                           1 	(obj:1)
t_y17_44                                            1 	(obj:1)
t_y90_124                                           1 	(obj:1)
t_y21_95                                            1 	(obj:1)
t_y55_102                                           1 	(obj:1)
t_y11_127                                           1 	(obj:1)
t_y98_127                                           1 	(obj:1)
t_y72_127                                           1 	(obj:1)
t_y94_138                                           1 	(obj:1)
t_y42_130                                           1 	(obj:1)
t_y7_46                                             1 	(obj:1)
t_y116_127                                          1 	(obj:1)
t_y49_130                                           1 	(obj:1)
t_y21_143                                           1 	(obj:1)
t_y109_135                                          1 	(obj:1)
t_y67_102                                           1 	(obj:1)
t_y77_138                                           1 	(obj:1)
t_y131_138                                          1 	(obj:1)
t_y103_133                                          1 	(obj:1)
t_y113_146                                          1 	(obj:1)
t_y21_106                                           1 	(obj:1)
t_y46_98                                            1 	(obj:1)
t_y86_130                                           1 	(obj:1)
t_y124_150                                          1 	(obj:1)
t_y0_102                                            1 	(obj:1)
t_y84_133                                           1 	(obj:1)
t_y21_115                                           1 	(obj:1)
t_y29_124                                           1 	(obj:1)
t_y98_138                                           1 	(obj:1)
t_y33_83                                            1 	(obj:1)
t_y60_109                                           1 	(obj:1)
t_y125_144                                          1 	(obj:1)
t_y43_124                                           1 	(obj:1)
t_y50_113                                           1 	(obj:1)
t_y17_27                                            1 	(obj:1)
t_y133_138                                          1 	(obj:1)
t_y14_135                                           1 	(obj:1)
t_y95_133                                           1 	(obj:1)
t_y133_148                                          1 	(obj:1)
t_y53_127                                           1 	(obj:1)
t_y17_87                                            1 	(obj:1)
t_y102_135                                          1 	(obj:1)
t_y25_133                                           1 	(obj:1)
t_y54_129                                           1 	(obj:1)
t_y21_141                                           1 	(obj:1)
t_y69_131                                           1 	(obj:1)
t_y76_108                                           1 	(obj:1)
t_y27_98                                            1 	(obj:1)
t_y5_108                                            1 	(obj:1)
t_y70_102                                           1 	(obj:1)
t_y91_133                                           1 	(obj:1)
t_y110_133                                          1 	(obj:1)
t_y109_152                                          1 	(obj:1)
t_y61_108                                           1 	(obj:1)
t_y90_133                                           1 	(obj:1)
t_y2_46                                             1 	(obj:1)
t_y17_32                                            1 	(obj:1)
t_y130_138                                          1 	(obj:1)
t_y35_144                                           1 	(obj:1)
t_y26_108                                           1 	(obj:1)
t_y46_107                                           1 	(obj:1)
t_y72_133                                           1 	(obj:1)
t_y24_131                                           1 	(obj:1)
t_y31_130                                           1 	(obj:1)
t_y48_109                                           1 	(obj:1)
t_y50_138                                           1 	(obj:1)
t_y81_98                                            1 	(obj:1)
t_y94_144                                           1 	(obj:1)
t_y5_54                                             1 	(obj:1)
t_y82_138                                           1 	(obj:1)
t_y33_149                                           1 	(obj:1)
t_y15_109                                           1 	(obj:1)
t_y136_138                                          1 	(obj:1)
t_y33_106                                           1 	(obj:1)
t_y24_138                                           1 	(obj:1)
t_y127_135                                          1 	(obj:1)
t_y54_135                                           1 	(obj:1)
t_y105_127                                          1 	(obj:1)
t_y79_133                                           1 	(obj:1)
t_y128_130                                          1 	(obj:1)
t_y33_128                                           1 	(obj:1)
t_y52_130                                           1 	(obj:1)
t_y62_130                                           1 	(obj:1)
t_y43_108                                           1 	(obj:1)
t_y21_148                                           1 	(obj:1)
t_y79_130                                           1 	(obj:1)
t_y46_124                                           1 	(obj:1)
t_y90_127                                           1 	(obj:1)
t_y3_127                                            1 	(obj:1)
t_y102_137                                          1 	(obj:1)
t_y81_138                                           1 	(obj:1)
t_y104_138                                          1 	(obj:1)
t_y54_78                                            1 	(obj:1)
t_y33_146                                           1 	(obj:1)
t_y21_127                                           1 	(obj:1)
t_y5_102                                            1 	(obj:1)
t_y102_128                                          1 	(obj:1)
t_y36_109                                           1 	(obj:1)
t_y69_124                                           1 	(obj:1)
t_y21_45                                            1 	(obj:1)
t_y0_113                                            1 	(obj:1)
t_y11_33                                            1 	(obj:1)
t_y54_65                                            1 	(obj:1)
t_y52_113                                           1 	(obj:1)
t_y29_113                                           1 	(obj:1)
t_y80_138                                           1 	(obj:1)
t_y33_104                                           1 	(obj:1)
t_y61_130                                           1 	(obj:1)
t_y23_108                                           1 	(obj:1)
t_y33_66                                            1 	(obj:1)
t_y113_147                                          1 	(obj:1)
t_y60_127                                           1 	(obj:1)
t_y111_127                                          1 	(obj:1)
t_y4_130                                            1 	(obj:1)
t_y127_148                                          1 	(obj:1)
t_y21_25                                            1 	(obj:1)
t_y70_124                                           1 	(obj:1)
t_y41_131                                           1 	(obj:1)
t_y63_144                                           1 	(obj:1)
t_y14_46                                            1 	(obj:1)
t_y102_143                                          1 	(obj:1)
t_y69_113                                           1 	(obj:1)
t_y124_138                                          1 	(obj:1)
t_y45_127                                           1 	(obj:1)
t_y130_134                                          1 	(obj:1)
t_y9_14                                             1 	(obj:1)
t_y17_62                                            1 	(obj:1)
t_y14_15                                            1 	(obj:1)
t_y54_102                                           1 	(obj:1)
t_y66_108                                           1 	(obj:1)
t_y21_43                                            1 	(obj:1)
t_y4_21                                             1 	(obj:1)
t_y124_127                                          1 	(obj:1)
t_y81_102                                           1 	(obj:1)
t_y14_103                                           1 	(obj:1)
t_y84_138                                           1 	(obj:1)
t_y33_131                                           1 	(obj:1)
t_y60_98                                            1 	(obj:1)
t_y74_130                                           1 	(obj:1)
t_y113_124                                          1 	(obj:1)
t_y21_105                                           1 	(obj:1)
t_y123_130                                          1 	(obj:1)
t_y31_124                                           1 	(obj:1)
t_y124_151                                          1 	(obj:1)
t_y17_126                                           1 	(obj:1)
t_y118_131                                          1 	(obj:1)
t_y74_113                                           1 	(obj:1)
t_y27_113                                           1 	(obj:1)
t_y24_109                                           1 	(obj:1)
t_y98_145                                           1 	(obj:1)
t_y46_106                                           1 	(obj:1)
t_y87_131                                           1 	(obj:1)
t_y25_131                                           1 	(obj:1)
t_y72_98                                            1 	(obj:1)
t_y54_143                                           1 	(obj:1)
t_y91_144                                           1 	(obj:1)
t_y17_26                                            1 	(obj:1)
t_y133_147                                          1 	(obj:1)
t_y65_124                                           1 	(obj:1)
t_y98_130                                           1 	(obj:1)
t_y21_140                                           1 	(obj:1)
t_y54_69                                            1 	(obj:1)
t_y19_108                                           1 	(obj:1)
t_y115_127                                          1 	(obj:1)
